minizinc/sudoku_problems2/sudoku_p38.dzn
%
% sudoku_p38.dzn
% See http://www.hakank.org/minizinc/sudoku_gcc.mzn
% 
% This problem is problem 38 from
% Gecode's sudoku.cpp
% http://www.gecode.org/gecode-doc-latest/sudoku_8cpp-source.html
% 
x = array2d(1..n, 1..n, [   
% http://janko.at/Raetsel/Sudoku/305.a.htm
% 38
  _,  _,  1,  6,  _, 14,  _,  8,  _, 11, 15,  _,  4,  _,  _,  _,
  _,  5,  _,  _,  _,  9, 13,  _,  _,  _,  _,  _,  _, 10,  7,  3,
  _,  _,  3,  _,  _,  _, 11,  _,  7,  8,  _, 13,  _,  6,  _,  _,
  _,  _,  _,  _,  _,  _,  1,  _,  _,  _,  9,  _,  _,  _, 11, 14,
 12,  _,  _,  1, 13,  _,  _,  6, 11,  5,  _,  _,  7,  _, 10,  4,
  _,  _,  _,  5,  _, 15,  _,  9,  8,  _,  _,  3,  2,  _, 13, 16,
  3,  _,  _,  _,  _,  _, 12,  _,  _, 13,  _, 10,  5,  _, 14,  _,
  _,  _,  _,  _,  3, 11,  5,  _, 15,  7,  _,  _,  _,  9,  _,  _,
  _,  _,  5,  _,  _,  _,  6, 12,  _,  2, 10, 14,  _,  _,  _,  _,
  _,  3,  _, 11, 14,  _,  2,  _,  _,  4,  _,  _,  _,  _,  _,  9,
 15,  9,  _,  2, 10,  _,  _, 11,  5,  _,  7,  _, 16,  _,  _,  _,
 14, 10,  _, 16,  _,  _,  7,  5,  6,  _,  _, 11, 13,  _,  _,  1,
  6, 12,  _,  _,  _,  8,  _,  _,  _,  9,  _,  _,  _,  _,  _,  _,
  _,  _,  9,  _,  6,  _,  4,  7,  _, 14,  _,  _,  _, 13,  _,  _,
  2, 16, 14,  _,  _,  _,  _,  _,  _, 12,  6,  _,  _,  _, 15,  _,
  _,  _,  _,  3,  _, 12, 16,  _,  2,  _, 13,  _,  6,  5,  _,  _
]);

n = 16;


